```smt2
; [NEW] At line 365, console.log() always succeeds
; PRINCIPLE: P5 - Semantic Correctness
(declare-const logged Bool)
(assert (= logged true))
(assert (not logged))
(check-sat)
; unsat → console.log() unconditionally succeeds
```

```smt2
; [NEW] At line 365, smt2 from stored contract data
; PRINCIPLE: P6 - Boundary Input
(declare-const smt2_content String)
(declare-const smt2_lines Int)
; p.smt2 can be empty or contain content
; split("\n") on empty returns [""]
(assert (= smt2_content ""))
; After split, we have empty array (one empty string)
(assert (= smt2_lines 1))
; Printing empty string is safe, not a violation
(assert (= smt2_lines 1))
(check-sat)
; sat → smt2 can be empty string
; Empty proof content is degenerate - user should run analyze
```